55653
30, 4, 18, 12, 9, 14, 2, 11, 25, 31, 27, 1, 33, 42, 45, 52, 15, 36, 39, 46, 16, 10, 22, 29, 21, 53, 23, 17, 48, 49, 19, 44, 38, 8, 32, 41, 13, 37, 7, 20, 50, 24, 35, 5, 51, 40, 43, 3, 28, 6, 26, 55, 34, 54, 47
